StudentsNr = 10;
InstructorsNr = 61;
DaysNr = 2;
SlotsPerDay = 60;
AvailabilitySlotsLenght = 60;
RoomNr = 2;
ProgrammNr = 1;
DegreeNr = 2;
RolesNr = 2;
CoursesNr = 2;
InstructorsProgramm = [{1}, {1}, {1}, {1}, {1}, {1}, {1}, {1}, {1}, {1}, {1}, {1}, {1}, {1}, {1}, {1}, {1}, {1}, {1}, {1}, {1}, {1}, {1}, {1}, {1}, {1}, {1}, {1}, {1}, {1}, {1}, {1}, {1}, {1}, {1}, {1}, {1}, {1}, {1}, {1}, {1}, {1}, {1}, {1}, {1}, {1}, {1}, {1}, {1}, {1}, {1}, {1}, {1}, {1}, {1}, {1}, {1}, {1}, {1}, {1}, {1}];
InstructorRolesPerProgramm = [|{2, 3, 4, 7, 9, 10, 11, 12, 13, 16, 20, 21, 22, 25, 27, 28, 29, 36, 37, 44, 45, 47, 49, 50, 52, 54, 55, 56, 58, 60}, {3, 4, 8, 11, 12, 13, 15, 16, 17, 18, 23, 26, 27, 28, 29, 33, 35, 38, 39, 42, 48, 50, 52, 55, 56, 57, 58, 60}|];
InstructorsAvailability = [|0, 1, |0, 1, |0, 1, |0, 0, |0, 1, |0, 0, |1, 1, |0, 1, |0, 1, |1, 1, |0, 0, |0, 0, |0, 1, |0, 0, |1, 1, |0, 1, |1, 1, |1, 1, |0, 0, |0, 1, |0, 0, |0, 0, |1, 0, |0, 1, |0, 1, |1, 0, |1, 0, |0, 1, |1, 0, |1, 1, |1, 1, |0, 1, |0, 1, |1, 1, |0, 0, |1, 0, |0, 0, |1, 1, |0, 0, |1, 1, |0, 1, |1, 1, |0, 1, |0, 0, |0, 1, |0, 0, |0, 0, |0, 1, |1, 1, |0, 1, |0, 1, |1, 0, |0, 1, |1, 1, |0, 0, |0, 1, |1, 1, |1, 0, |0, 1, |0, 1, |0, 0|];
StudentsProgramm = [1, 1, 1, 1, 1, 1, 1, 1, 1, 1];
StudentsDegree = [2, 2, 1, 1, 1, 2, 2, 2, 2, 2];
StudentsSupervisorId = [34, 55, 31, 40, 24, 15, 53, 52, 4, 59];
StudentsCourseIds = [{1}, {1}, {1}, {2}, {2}, {2}, {1}, {1}, {2}, {1}];
StudentsAvailability = [|1, 1, |1, 0, |0, 0, |1, 1, |1, 1, |1, 1, |1, 1, |0, 1, |1, 1, |0, 0|];
TheoryticalMinCard = [1, 0, 1, 1, 1, 0, 1, 0, 0, 0];
CoursesInstructorIds = [{6, 44, 59}, {9, 12, 39, 56}];
RolesDemands = [25, 12];
RolesContinuity = [1];
ExamLen = [2, 2, 1, 1, 1, 2, 2, 2, 2, 2];
LunchTsMinLen = 0;
LunchStarts = [17..33, 75..102];
SupervisorAvailable = 0;
OptimalLunchLenght = [1, 0];
OptimalStartTs = [1, 0];
OptimalFinishTs = [1, 60];
MinimizeRooms = 300;
RolesSoftContinuity = [|1, 2|1, 3|];
SameDegreeInRoom = 10;
Mergeability = 2;
